(set-info :smt-lib-version 2.6)
(set-logic QF_UFLRA)
(set-info :source |
MathSat group

|)
(set-info :category "random")
(set-info :status sat)
(declare-fun f0_1 (Real) Real)
(declare-fun f0_2 (Real Real) Real)
(declare-fun f0_3 (Real Real Real) Real)
(declare-fun f0_4 (Real Real Real Real) Real)
(declare-fun f1_1 (Real) Real)
(declare-fun f1_2 (Real Real) Real)
(declare-fun f1_3 (Real Real Real) Real)
(declare-fun f1_4 (Real Real Real Real) Real)
(declare-fun x0 () Real)
(declare-fun x1 () Real)
(declare-fun x2 () Real)
(declare-fun x3 () Real)
(declare-fun x4 () Real)
(declare-fun x5 () Real)
(declare-fun x6 () Real)
(declare-fun x7 () Real)
(declare-fun x8 () Real)
(declare-fun x9 () Real)
(declare-fun x10 () Real)
(declare-fun x11 () Real)
(declare-fun x12 () Real)
(declare-fun x13 () Real)
(declare-fun x14 () Real)
(declare-fun x15 () Real)
(declare-fun x16 () Real)
(declare-fun x17 () Real)
(declare-fun x18 () Real)
(declare-fun x19 () Real)
(declare-fun x20 () Real)
(declare-fun x21 () Real)
(declare-fun x22 () Real)
(declare-fun x23 () Real)
(declare-fun x24 () Real)
(declare-fun x25 () Real)
(declare-fun x26 () Real)
(declare-fun x27 () Real)
(declare-fun x28 () Real)
(declare-fun x29 () Real)
(declare-fun P0 () Bool)
(declare-fun P1 () Bool)
(declare-fun P2 () Bool)
(declare-fun P3 () Bool)
(declare-fun P4 () Bool)
(declare-fun P5 () Bool)
(declare-fun P6 () Bool)
(declare-fun P7 () Bool)
(declare-fun P8 () Bool)
(declare-fun P9 () Bool)
(declare-fun P10 () Bool)
(declare-fun P11 () Bool)
(declare-fun P12 () Bool)
(declare-fun P13 () Bool)
(declare-fun P14 () Bool)
(declare-fun P15 () Bool)
(declare-fun P16 () Bool)
(declare-fun P17 () Bool)
(declare-fun P18 () Bool)
(declare-fun P19 () Bool)
(declare-fun P20 () Bool)
(declare-fun P21 () Bool)
(declare-fun P22 () Bool)
(declare-fun P23 () Bool)
(declare-fun P24 () Bool)
(declare-fun P25 () Bool)
(declare-fun P26 () Bool)
(declare-fun P27 () Bool)
(declare-fun P28 () Bool)
(declare-fun P29 () Bool)
(assert (let ((?v_219 (f1_2 x5 x12)) (?v_18 (f1_1 x24)) (?v_50 (f1_2 x10 (f0_1 x24))) (?v_21 (f0_2 x18 x2)) (?v_14 (* 23 x8))) (let ((?v_111 (+ (- ?v_14 (* 9 x14)) (* 17 x10))) (?v_37 (f0_2 ?v_21 x6)) (?v_68 (f1_2 x14 x16)) (?v_5 (f0_1 x21)) (?v_116 (f0_1 x4)) (?v_0 (f0_1 x14)) (?v_22 (f0_2 x15 x27)) (?v_33 (f1_1 x17))) (let ((?v_77 (f1_2 ?v_22 x24)) (?v_8 (f1_2 ?v_5 x28)) (?v_13 (f1_1 x3)) (?v_169 (f1_2 x19 x18)) (?v_9 (f0_2 x7 x13))) (let ((?v_107 (f0_2 x29 ?v_13)) (?v_4 (f0_1 x25)) (?v_66 (f0_1 x13)) (?v_32 (+ (- (* 20 x28) (* 18 x7)) (* 11 x13))) (?v_51 (f0_2 x28 x3)) (?v_150 (f1_2 x17 x21)) (?v_52 (+ (- (* 7 x12) (* 25 x8)) (* 3 x22))) (?v_138 (f0_2 x9 x5)) (?v_49 (* 28 x10)) (?v_240 (f1_2 x29 x21))) (let ((?v_132 (f1_2 ?v_116 ?v_52)) (?v_101 (f1_2 x27 x27)) (?v_53 (f0_1 x18)) (?v_274 (< ?v_9 21)) (?v_19 (< x22 20)) (?v_89 (< (f1_2 x21 x23) 23)) (?v_273 (= x10 ?v_21)) (?v_48 (< ?v_107 17)) (?v_17 (< (f1_2 x29 x8) 22)) (?v_324 (< (f1_1 x14) 24)) (?v_28 (< ?v_5 6)) (?v_34 (< ?v_21 7)) (?v_258 (= ?v_32 ?v_33)) (?v_164 (< (f0_2 x29 x11) 7)) (?v_197 (= ?v_169 x1)) (?v_300 (< x3 24)) (?v_6 (< ?v_4 3)) (?v_104 (< ?v_21 0))) (let ((?v_267 (= ?v_240 ?v_101)) (?v_36 (= x25 ?v_8)) (?v_54 (< ?v_66 16)) (?v_277 (= ?v_4 ?v_32)) (?v_11 (< x23 9)) (?v_203 (< ?v_116 6)) (?v_149 (= ?v_68 ?v_32)) (?v_208 (< ?v_132 29)) (?v_73 (< ?v_101 8)) (?v_228 (< x21 18)) (?v_317 (< (- (+ (* 7 x5) (* 11 x20)) (* 11 x10)) 7)) (?v_185 (< ?v_66 23)) (?v_252 (< x19 25)) (?v_272 (= x5 (f0_1 x9))) (?v_322 (= ?v_33 (+ (- (* 19 x27) (* 25 x9)) (* 2 x26)))) (?v_65 (< x29 4)) (?v_280 (< x3 15)) (?v_325 (< x19 5)) (?v_63 (= (f0_2 x8 x15) (f0_2 x19 x20))) (?v_266 (< ?v_50 17)) (?v_92 (= ?v_13 (f1_2 x6 x24))) (?v_91 (< ?v_51 4)) (?v_151 (= (f1_1 x5) x12)) (?v_253 (< ?v_50 28)) (?v_223 (< ?v_53 28)) (?v_58 (= x26 (f0_1 ?v_18))) (?v_177 (< ?v_51 5)) (?v_326 (< x23 0)) (?v_180 (< x0 0)) (?v_108 (< x6 22)) (?v_87 (< ?v_150 13)) (?v_201 (= x13 x14)) (?v_42 (= ?v_111 ?v_0)) (?v_43 (< ?v_18 1)) (?v_292 (= ?v_132 ?v_219)) (?v_214 (= x12 ?v_138)) (?v_26 (not P29)) (?v_40 (not P9)) (?v_24 (not ?v_6)) (?v_136 (not (< (- (- (* 22 x1) (* 20 x23)) (* 27 x25)) 12))) (?v_301 (not ?v_28)) (?v_188 (not P16)) (?v_189 (not P4))) (let ((?v_93 (not ?v_325)) (?v_47 (not P6)) (?v_161 (not P5)) (?v_90 (not ?v_92)) (?v_38 (not P12)) (?v_248 (not ?v_42)) (?v_141 (not P20)) (?v_163 (not ?v_151)) (?v_307 (not P21)) (?v_235 (not (< ?v_37 5))) (?v_221 (not (< x0 14))) (?v_94 (not ?v_43)) (?v_143 (not P26)) (?v_60 (not ?v_280)) (?v_236 (not ?v_324)) (?v_128 (not ?v_48)) (?v_78 (not (< (- (- (* 7 x9) (* 23 x11)) ?v_49) 19))) (?v_55 (not P8)) (?v_113 (not ?v_322)) (?v_194 (not ?v_54)) (?v_321 (not ?v_58)) (?v_261 (not P28)) (?v_71 (not ?v_252)) (?v_81 (not ?v_65)) (?v_263 (not ?v_253)) (?v_146 (not ?v_185)) (?v_304 (not ?v_149)) (?v_283 (not ?v_73)) (?v_88 (not P1)) (?v_175 (not P13)) (?v_212 (not ?v_274)) (?v_126 (not ?v_89)) (?v_140 (not P22)) (?v_291 (not ?v_277)) (?v_168 (not (< ?v_101 11))) (?v_308 (not ?v_317)) (?v_296 (not P2)) (?v_153 (not P27)) (?v_249 (not ?v_104)) (?v_137 (not P18)) (?v_218 (not P0)) (?v_192 (not ?v_203)) (?v_271 (not P17)) (?v_220 (not P11)) (?v_303 (not P25)) (?v_297 (not ?v_36)) (?v_172 (not ?v_272)) (?v_319 (not P23)) (?v_217 (not ?v_300)) (?v_268 (not P24)) (?v_305 (not ?v_177)) (?v_262 (not ?v_180)) (?v_211 (not ?v_326)) (?v_205 (not P19)) (?v_312 (not ?v_63)) (?v_320 (not ?v_214)) (?v_232 (not ?v_292)) (?v_254 (not P7)) (?v_295 (not ?v_273)) (?v_259 (not ?v_223)) (?v_256 (not ?v_17)) (?v_282 (not ?v_267)) (?v_299 (not ?v_201)) (?v_15 (+ (* 21 ?v_52) (* 19 (f1_2 x27 x11)) ?v_49))) (let ((?v_270 (not (= ?v_15 ?v_68))) (?v_41 (= (- (+ (* 18 x14) ?v_14) (* 9 x27)) ?v_15))) (let ((?v_315 (not ?v_41)) (?v_85 (+ (- x0 (* 13 x4)) (* 12 x13)))) (let ((?v_206 (= ?v_85 x18)) (?v_231 (= ?v_15 x26)) (?v_311 (< (+ (* 28 x0) (* 19 ?v_169) (* 22 x16)) 7))) (let ((?v_209 (not ?v_206)) (?v_234 (< (+ x15 (* 18 x2) (* 23 x19)) 21))) (let ((?v_243 (not ?v_234)) (?v_298 (not ?v_231)) (?v_82 (+ (- (* (- 23) x12) (* 18 x16)) (* 22 x5)))) (let ((?v_39 (f1_1 ?v_82))) (let ((?v_213 (< ?v_39 28)) (?v_62 (- (- (* (- 14) x14) (* 19 x6)) (* 6 x4)))) (let ((?v_7 (< ?v_62 1))) (let ((?v_202 (not ?v_7)) (?v_130 (< ?v_9 (- 23))) (?v_1 (+ (- (* (- 25) x1) (* 13 x8)) (* 7 x24)))) (let ((?v_25 (+ (- (* (- 27) ?v_18) (* 13 ?v_77)) (* 3 ?v_1)))) (let ((?v_200 (< ?v_25 10))) (let ((?v_316 (not ?v_200)) (?v_139 (+ (- (* (- 7) x12) (* 6 x1)) (* 17 x13)))) (let ((?v_2 (< ?v_139 (- 28))) (?v_3 (+ (* (- 24) ?v_0) (* 24 ?v_0) (* 8 x10)))) (let ((?v_289 (< ?v_3 (- 9)))) (let ((?v_159 (not ?v_289)) (?v_10 (f0_2 ?v_1 ?v_219))) (let ((?v_27 (< ?v_10 16)) (?v_121 (not ?v_2)) (?v_84 (- (+ (* (- 11) x23) (* 5 ?v_33)) (* 22 x17)))) (let ((?v_69 (f0_2 ?v_50 ?v_84))) (let ((?v_281 (not (= ?v_3 ?v_69))) (?v_102 (+ (- (* (- 10) x7) (* 4 x7)) (* 22 x0)))) (let ((?v_133 (< ?v_102 (- 12)))) (let ((?v_246 (not ?v_133)) (?v_80 (< x26 (- 1))) (?v_72 (< ?v_4 (- 24)))) (let ((?v_46 (not ?v_72)) (?v_114 (< ?v_8 (- 3)))) (let ((?v_97 (not ?v_114)) (?v_167 (f1_1 ?v_1))) (let ((?v_12 (= ?v_9 ?v_167)) (?v_16 (- (- (* (- 25) x19) (* 17 x25)) x15))) (let ((?v_165 (< ?v_16 8))) (let ((?v_103 (not ?v_165)) (?v_86 (= x13 ?v_10)) (?v_61 (< (f0_2 x26 x1) (- 9))) (?v_173 (- (+ (* (- 22) x27) (* 23 x23)) (* 21 x10)))) (let ((?v_166 (< ?v_173 29)) (?v_98 (f1_1 (+ (* (- 24) x20) (* 4 x23) (* 3 x29))))) (let ((?v_264 (< ?v_98 (- 26)))) (let ((?v_112 (not ?v_264)) (?v_23 (+ (* (- 10) x10) (* 13 x24) (* 22 x6)))) (let ((?v_20 (< ?v_23 (- 10))) (?v_318 (< x3 (- 25)))) (let ((?v_210 (not ?v_318)) (?v_74 (< ?v_37 (- 24)))) (let ((?v_123 (not ?v_74)) (?v_76 (- (- (* (- 11) x3) (* 18 x12)) (* 23 x6)))) (let ((?v_44 (= x1 ?v_76))) (let ((?v_64 (not ?v_44)) (?v_31 (- (+ (* (- 21) x11) (* 4 x20)) (* 19 x24))) (?v_30 (+ (- (* 23 ?v_16) (* 29 x14)) (* 8 x5)))) (let ((?v_127 (= ?v_31 ?v_30))) (let ((?v_29 (not ?v_127)) (?v_176 (< ?v_32 (- 3)))) (let ((?v_115 (not ?v_176)) (?v_35 (< (f0_2 x18 x11) (- 21))) (?v_131 (< ?v_3 (- 10)))) (let ((?v_155 (not ?v_131)) (?v_247 (= (- (+ (* (- 3) ?v_1) (* 8 ?v_18)) (* 13 ?v_21)) ?v_22)) (?v_45 (< ?v_23 (- 15))) (?v_100 (< ?v_25 (- 25)))) (let ((?v_290 (not ?v_100)) (?v_276 (< (f0_2 ?v_25 x6) 16)) (?v_154 (= (f0_2 ?v_30 ?v_51) ?v_18))) (let ((?v_186 (not ?v_154)) (?v_191 (< ?v_31 9)) (?v_207 (< x10 (- 9))) (?v_160 (= ?v_39 ?v_138)) (?v_119 (< (f1_2 x4 x3) (- 19)))) (let ((?v_216 (not ?v_119)) (?v_70 (< ?v_21 (- 2))) (?v_83 (< ?v_31 (- 16))) (?v_56 (+ (* (- 12) x19) (* 12 x12) (* 14 x24)))) (let ((?v_118 (< ?v_56 (- 22))) (?v_179 (< (- (+ (* (- 3) x26) (* 12 x25)) (* 3 x11)) (- 15)))) (let ((?v_170 (not ?v_179)) (?v_110 (- (- (* (- 2) x18) (* 22 x12)) (* 21 x3)))) (let ((?v_99 (< ?v_110 (- 26)))) (let ((?v_125 (not ?v_99)) (?v_95 (< ?v_50 (- 4))) (?v_215 (- (- (* (- 16) x6) (* 22 x9)) (* 22 x13)))) (let ((?v_67 (not (< ?v_215 25))) (?v_79 (< ?v_3 18))) (let ((?v_302 (not ?v_79)) (?v_135 (< ?v_132 (- 21))) (?v_157 (< ?v_33 (- 13)))) (let ((?v_96 (not ?v_157)) (?v_57 (< ?v_53 (- 28))) (?v_59 (< ?v_56 (- 20)))) (let ((?v_106 (not ?v_57)) (?v_239 (< ?v_30 (- 11)))) (let ((?v_152 (not ?v_239)) (?v_265 (< ?v_62 22)) (?v_75 (- (+ (* (- 16) x27) (* 18 (f0_2 x25 x7))) (* 15 x14)))) (let ((?v_109 (< ?v_75 5)) (?v_190 (< ?v_69 14)) (?v_178 (not ?v_70)) (?v_174 (< ?v_75 (- 2))) (?v_158 (< (- (+ (* 18 ?v_76) (* 20 ?v_77)) (* 28 ?v_85)) 9)) (?v_288 (not ?v_27)) (?v_269 (not (< ?v_1 9))) (?v_129 (= ?v_84 x2))) (let ((?v_293 (not ?v_129)) (?v_222 (< ?v_31 13)) (?v_117 (not ?v_86)) (?v_244 (< x13 (- 23))) (?v_229 (< ?v_25 (- 15))) (?v_134 (< ?v_62 (- 18)))) (let ((?v_237 (not ?v_134)) (?v_105 (= (+ (* (- 14) x4) (* 14 x23) (* 14 x5)) ?v_98)) (?v_144 (< x1 (- 17))) (?v_145 (= x10 ?v_84)) (?v_238 (< ?v_102 12))) (let ((?v_162 (not ?v_238)) (?v_120 (= ?v_84 x25)) (?v_181 (< ?v_107 (- 10)))) (let ((?v_224 (not ?v_181)) (?v_284 (< ?v_25 (- 24))) (?v_122 (not ?v_83)) (?v_147 (= ?v_110 ?v_111))) (let ((?v_275 (not ?v_147)) (?v_226 (not ?v_120)) (?v_124 (< x13 (- 10)))) (let ((?v_142 (not ?v_124)) (?v_204 (= ?v_37 ?v_84))) (let ((?v_250 (not ?v_204)) (?v_294 (not ?v_135)) (?v_171 (< ?v_82 (- 3))) (?v_198 (< ?v_139 4)) (?v_148 (= ?v_102 ?v_0))) (let ((?v_193 (not ?v_148)) (?v_184 (not (< ?v_3 (- 19)))) (?v_227 (= ?v_3 ?v_25))) (let ((?v_230 (not ?v_227)) (?v_156 (< ?v_150 (- 16)))) (let ((?v_257 (not ?v_156)) (?v_196 (not ?v_130)) (?v_187 (< ?v_167 (- 29)))) (let ((?v_183 (not ?v_187)) (?v_182 (= ?v_51 ?v_173)) (?v_199 (not ?v_174))) (let ((?v_286 (not ?v_182)) (?v_225 (not ?v_144)) (?v_242 (= (+ (* 7 x14) (* 15 x25) (* 29 x21)) ?v_30))) (let ((?v_310 (not ?v_242)) (?v_195 (not ?v_190)) (?v_245 (not ?v_198)) (?v_260 (< ?v_240 (- 4))) (?v_251 (not ?v_207)) (?v_328 (not ?v_213)) (?v_327 (< ?v_215 17))) (let ((?v_306 (not ?v_327)) (?v_279 (not ?v_118)) (?v_233 (< ?v_23 (- 27))) (?v_241 (< ?v_107 (- 28)))) (let ((?v_255 (not ?v_241)) (?v_278 (< ?v_150 (- 2))) (?v_323 (not ?v_158)) (?v_285 (< (f0_1 x16) (- 6))) (?v_287 (< x17 (- 4)))) (let ((?v_309 (not ?v_287)) (?v_314 (not ?v_278)) (?v_313 (not ?v_145))) (and (and (and (and (and (and (and (and (and (and (and (and (and (and (and (and (and (and (and (and (and (and (and (and (and (and (and (and (and (and (and (and (and (and (and (and (and (and (and (and (and (and (and (and (and (and (and (and (and (and (and (and (and (and (and (and (and (and (and (and (and (and (and (and (and (and (and (and (and (and (and (and (and (and (and (and (and (and (and (and (and (and (and (and (and (and (and (and (and (and (and (and (and (and (and (and (and (and (and (and (and (and (and (and (and (and (and (and (and (and (and (and (and (and (and (and (and (and (and (and (and (and (and (and (and (and (and (and (and (and (and (and (and (and (and (and (and (and (and (and (and (and (and (and (and (and (and (and (and (and (and (and (and (and (and (and (and (and (and (and (and (and (and (and (and (and (and (and (and (and (and (and (and (and (and (and (and (and (and (and (and (and (and (and (and (and (and (and (and (and (and (and (and (and (and (and (and (and (and (and (and (and (and (and (and (and (and (and (and (and (and (and (and (and (and (and (and (and (and (and (and (and (and (and (and (and (and (and (and (and (and (and (and (and (and (and (and (and (and (and (and (and (and (and (and (and (and (and (and (and (and (and (and (and (and (and (and (and (and (and (and (and (and (and (and (and (and (and (and (and (and (and (and (and (and (and (and (and (and (and (and (and (and (and (and (and (and (and (and (and (and (and (and (and (and (and (and (and (and (or (or ?v_11 ?v_213) ?v_202) (or (or (not ?v_108) ?v_26) ?v_40)) (or (or ?v_24 P2) ?v_36)) (or (or ?v_130 ?v_316) ?v_270)) (or (or ?v_2 ?v_17) ?v_159)) (or (or ?v_136 ?v_27) ?v_121)) (or (or ?v_281 ?v_246) ?v_19)) (or (or (not ?v_80) ?v_46) ?v_301)) (or (or ?v_6 ?v_7) ?v_97)) (or (or ?v_188 (not ?v_12)) ?v_189)) (or (or P10 P2) ?v_93)) (or (or ?v_103 ?v_63) ?v_86)) (or (or ?v_61 ?v_47) ?v_48)) (or (or ?v_11 ?v_161) ?v_166)) (or (or ?v_12 ?v_112) ?v_20)) (or (or ?v_90 ?v_164) ?v_210)) (or (or ?v_38 ?v_248) ?v_41)) (or (or ?v_123 ?v_64) ?v_29)) (or (or ?v_89 ?v_17) ?v_115)) (or (or ?v_35 ?v_155) ?v_58)) (or (or ?v_19 ?v_20) ?v_65)) (or (or ?v_247 (not ?v_45)) P8)) (or (or ?v_141 ?v_24) ?v_290)) (or (or ?v_26 P17) ?v_163)) (or (or ?v_27 ?v_28) ?v_29)) (or (or (not ?v_276) ?v_186) ?v_191)) (or (or ?v_307 ?v_258) ?v_34)) (or (or ?v_34 ?v_35) ?v_207)) (or (or ?v_6 ?v_36) ?v_235)) (or (or P8 ?v_104) ?v_221)) (or (or ?v_38 P14) ?v_94)) (or (or ?v_228 (not ?v_160)) ?v_223)) (or (or ?v_216 ?v_40) ?v_70)) (or (or ?v_143 ?v_315) ?v_42)) (or (or ?v_83 ?v_60) ?v_27)) (or (or ?v_43 ?v_44) ?v_118)) (or (or ?v_170 ?v_236) P8)) (or (or ?v_45 ?v_125) ?v_46)) (or (or ?v_47 ?v_128) ?v_78)) (or (or P27 (not ?v_95)) ?v_91)) (or (or ?v_87 ?v_67) ?v_54)) (or (or ?v_55 ?v_113) ?v_302)) (or (or ?v_135 ?v_96) P4)) (or (or ?v_57 ?v_194) ?v_55)) (or (or P2 P8) ?v_7)) (or (or ?v_59 ?v_106) ?v_321)) (or (or P16 ?v_152) ?v_59)) (or (or ?v_60 (not ?v_61)) (not ?v_265))) (or (or ?v_40 ?v_63) ?v_42)) (or (or P4 ?v_261) ?v_71)) (or (or ?v_64 ?v_81) P27)) (or (or ?v_263 ?v_109) ?v_146)) (or (or ?v_67 ?v_64) ?v_304)) (or (or (not P3) ?v_190) ?v_283)) (or (or ?v_178 ?v_71) ?v_72)) (or (or ?v_73 ?v_74) ?v_88)) (or (or ?v_174 ?v_158) ?v_78)) (or (or ?v_79 ?v_288) ?v_80)) (or (or ?v_175 ?v_6) ?v_212)) (or (or ?v_269 ?v_81) (not (< ?v_82 25)))) (or (or ?v_83 ?v_83) ?v_293)) (or (or ?v_206 P13) ?v_222)) (or (or ?v_117 P11) ?v_87)) (or (or ?v_88 ?v_126) ?v_140)) (or (or ?v_90 P20) ?v_47)) (or (or ?v_244 ?v_91) ?v_46)) (or (or (not ?v_229) ?v_92) ?v_93)) (or (or ?v_94 ?v_291) ?v_237)) (or (or ?v_83 ?v_95) ?v_73)) (or (or ?v_96 P15) ?v_97)) (or (or ?v_27 ?v_105) ?v_45)) (or (or ?v_99 P18) ?v_180)) (or (or ?v_100 ?v_144) ?v_64)) (or (or ?v_168 ?v_145) ?v_308)) (or (or ?v_162 ?v_296) ?v_103)) (or (or ?v_87 P19) ?v_153)) (or (or ?v_249 ?v_120) ?v_137)) (or (or ?v_105 ?v_106) ?v_224)) (or (or P27 ?v_108) (not ?v_284))) (or (or ?v_122 P5) (not ?v_109))) (or (or ?v_275 ?v_43) ?v_218)) (or (or ?v_104 P4) ?v_112)) (or (or ?v_113 ?v_99) ?v_114)) (or (or ?v_91 ?v_115) ?v_192)) (or (or ?v_115 ?v_117) ?v_118)) (or (or ?v_119 ?v_226) ?v_36)) (or (or ?v_121 ?v_95) ?v_27)) (or (or ?v_122 P9) ?v_123)) (or (or ?v_124 ?v_142) ?v_250)) (or (or ?v_125 P26) ?v_35)) (or (or ?v_126 ?v_46) ?v_93)) (or (or ?v_24 ?v_127) ?v_45)) (or (or ?v_92 ?v_177) ?v_128)) (or (or ?v_271 ?v_92) ?v_129)) (or (or ?v_130 ?v_94) ?v_48)) (or (or ?v_131 ?v_208) ?v_133)) (or (or ?v_134 ?v_294) ?v_136)) (or (or ?v_137 ?v_125) ?v_171)) (or (or ?v_220 ?v_214) ?v_198)) (or (or ?v_140 ?v_141) ?v_142)) (or (or ?v_143 ?v_193) ?v_184)) (or (or P23 ?v_197) ?v_144)) (or (or ?v_230 ?v_24) ?v_145)) (or (or ?v_231 ?v_20) ?v_146)) (or (or ?v_58 ?v_147) ?v_135)) (or (or ?v_148 ?v_149) ?v_303)) (or (or ?v_257 ?v_151) ?v_65)) (or (or ?v_40 ?v_152) ?v_153)) (or (or ?v_45 P16) ?v_154)) (or (or P11 ?v_297) ?v_172)) (or (or ?v_155 P23) P9)) (or (or P4 ?v_125) ?v_156)) (or (or ?v_157 P13) ?v_158)) (or (or ?v_196 ?v_159) (not ?v_20))) (or (or ?v_106 ?v_128) ?v_160)) (or (or ?v_161 ?v_319) ?v_162)) (or (or ?v_163 ?v_164) ?v_165)) (or (or ?v_60 (not ?v_166)) ?v_183)) (or (or ?v_67 ?v_168) ?v_95)) (or (or P17 ?v_311) ?v_170)) (or (or ?v_171 P20) ?v_74)) (or (or ?v_217 ?v_87) ?v_172)) (or (or ?v_182 ?v_268) ?v_199)) (or (or ?v_35 ?v_175) ?v_48)) (or (or ?v_61 ?v_153) ?v_95)) (or (or ?v_176 ?v_305) ?v_178)) (or (or ?v_179 ?v_147) ?v_262)) (or (or ?v_35 ?v_181) ?v_286)) (or (or ?v_89 ?v_183) ?v_70)) (or (or ?v_27 ?v_201) ?v_78)) (or (or (not ?v_19) ?v_92) ?v_225)) (or (or ?v_35 (not ?v_34)) ?v_184)) (or (or (not ?v_266) ?v_310) ?v_185)) (or (or ?v_186 ?v_149) ?v_45)) (or (or ?v_187 ?v_188) ?v_189)) (or (or P8 ?v_58) ?v_115)) (or (or ?v_195 ?v_191) ?v_79)) (or (or ?v_192 ?v_193) ?v_160)) (or (or ?v_194 ?v_100) ?v_63)) (or (or ?v_151 ?v_195) ?v_196)) (or (or (not ?v_197) ?v_245) ?v_190)) (or (or ?v_134 ?v_43) ?v_211)) (or (or ?v_197 ?v_81) ?v_199)) (or (or ?v_200 ?v_119) ?v_201)) (or (or ?v_189 P12) ?v_202)) (or (or ?v_203 ?v_205) ?v_204)) (or (or ?v_188 ?v_157) ?v_312)) (or (or P18 ?v_124) ?v_205)) (or (or (not ?v_260) ?v_209) ?v_83)) (or (or ?v_251 (not ?v_91)) P5)) (or (or ?v_201 ?v_201) (not ?v_208))) (or (or ?v_104 ?v_12) P7)) (or (or ?v_209 ?v_199) ?v_146)) (or (or (not ?v_171) P17) ?v_44)) (or (or ?v_210 ?v_211) ?v_212)) (or (or ?v_328 ?v_166) ?v_200)) (or (or ?v_320 ?v_306) ?v_208)) (or (or P19 ?v_216) P6)) (or (or ?v_100 ?v_217) ?v_218)) (or (or ?v_232 ?v_99) ?v_133)) (or (or ?v_146 ?v_165) ?v_136)) (or (or P25 ?v_144) ?v_220)) (or (or ?v_46 ?v_221) ?v_279)) (or (or ?v_222 ?v_120) ?v_121)) (or (or ?v_223 ?v_113) ?v_233)) (or (or ?v_190 ?v_224) ?v_220)) (or (or ?v_2 ?v_78) ?v_79)) (or (or ?v_164 ?v_194) ?v_225)) (or (or ?v_26 ?v_127) ?v_254)) (or (or ?v_226 ?v_227) ?v_208)) (or (or ?v_180 (not ?v_228)) ?v_229)) (or (or ?v_89 ?v_226) ?v_230)) (or (or ?v_104 (not ?v_87)) ?v_11)) (or (or ?v_145 ?v_255) ?v_231)) (or (or P5 ?v_171) ?v_232)) (or (or ?v_233 ?v_208) ?v_243)) (or (or ?v_234 ?v_106) ?v_88)) (or (or ?v_235 ?v_114) ?v_236)) (or (or ?v_237 ?v_238) ?v_168)) (or (or ?v_26 ?v_95) ?v_6)) (or (or ?v_86 ?v_214) ?v_239)) (or (or ?v_267 ?v_241) ?v_242)) (or (or ?v_108 ?v_243) P2)) (or (or ?v_225 ?v_220) ?v_242)) (or (or ?v_295 ?v_209) ?v_17)) (or (or ?v_134 ?v_244) ?v_192)) (or (or ?v_222 (not ?v_35)) ?v_143)) (or (or ?v_245 ?v_246) ?v_244)) (or (or ?v_54 ?v_95) ?v_278)) (or (or ?v_74 ?v_2) ?v_40)) (or (or (not ?v_247) ?v_44) ?v_41)) (or (or P8 ?v_141) ?v_248)) (or (or ?v_70 ?v_259) P20)) (or (or ?v_249 ?v_213) ?v_250)) (or (or ?v_251 ?v_252) ?v_65)) (or (or ?v_253 ?v_254) P16)) (or (or ?v_81 ?v_323) P13)) (or (or ?v_195 ?v_134) ?v_255)) (or (or ?v_256 ?v_256) ?v_257)) (or (or ?v_258 P16) ?v_195)) (or (or ?v_87 ?v_259) (not ?v_233))) (or (or ?v_73 ?v_260) ?v_200)) (or (or ?v_261 ?v_208) ?v_54)) (or (or ?v_262 ?v_196) ?v_263)) (or (or ?v_130 ?v_149) ?v_176)) (or (or ?v_264 ?v_265) ?v_162)) (or (or ?v_224 (not ?v_191)) ?v_266)) (or (or ?v_226 ?v_260) ?v_282)) (or (or ?v_298 ?v_73) ?v_253)) (or (or ?v_42 ?v_202) ?v_264)) (or (or ?v_285 ?v_268) ?v_94)) (or (or ?v_220 ?v_159) ?v_241)) (or (or ?v_299 ?v_269) ?v_212)) (or (or ?v_12 (< (f0_1 x5) (- 11))) ?v_193)) (or (or ?v_270 ?v_258) ?v_271)) (or (or ?v_272 ?v_95) P2)) (or (or ?v_11 ?v_228) P12)) (or (or (not P15) ?v_271) ?v_273)) (or (or ?v_94 ?v_186) ?v_60)) (or (or (not P14) ?v_24) ?v_186)) (or (or ?v_274 ?v_275) ?v_276)) (or (or ?v_236 P25) ?v_20)) (or (or P8 ?v_277) ?v_224)) (or (or ?v_83 ?v_309) P2)) (or (or ?v_261 ?v_314) ?v_279)) (or (or ?v_28 ?v_280) ?v_281)) (or (or ?v_269 ?v_206) ?v_20)) (or (or ?v_166 ?v_256) ?v_232)) (or (or ?v_254 ?v_282) ?v_58)) (or (or ?v_248 ?v_259) ?v_161)) (or (or ?v_283 ?v_227) ?v_284)) (or (or (not ?v_285) ?v_313) ?v_221)) (or (or ?v_41 ?v_204) ?v_281)) (or (or ?v_208 ?v_268) ?v_153)) (or (or ?v_223 ?v_124) ?v_279)) (or (or ?v_146 ?v_266) ?v_286)) (or (or ?v_287 ?v_270) ?v_288)) (or (or ?v_225 ?v_289) ?v_290)) (or (or ?v_35 ?v_277) ?v_252)) (or (or ?v_275 ?v_291) ?v_35)) (or (or ?v_292 ?v_162) ?v_193)) (or (or ?v_293 ?v_294) ?v_232)) (or (or ?v_29 ?v_295) ?v_289)) (or (or ?v_170 ?v_279) ?v_234)) (or (or ?v_202 ?v_61) ?v_296)) (or (or ?v_19 ?v_262) P19)) (or (or ?v_206 ?v_229) ?v_64)) (or (or ?v_286 ?v_236) ?v_297)) (or (or ?v_121 ?v_298) ?v_145)) (or (or ?v_299 (not ?v_164)) P23)) (or (or ?v_12 ?v_121) ?v_166)) (or (or ?v_109 ?v_277) ?v_130)) (or (or P9 ?v_182) P5)) (or (or ?v_127 ?v_178) ?v_136)) (or (or P9 ?v_208) P12)) (or (or ?v_300 ?v_64) ?v_121)) (or (or ?v_158 ?v_268) ?v_121)) (or (or ?v_301 ?v_272) ?v_302)) (or (or ?v_135 ?v_303) ?v_64)) (or (or ?v_304 ?v_221) ?v_305)) (or (or ?v_198 ?v_302) ?v_216)) (or (or ?v_229 ?v_144) ?v_306)) (or (or ?v_86 ?v_307) ?v_92)) (or (or ?v_182 ?v_64) ?v_281)) (or (or ?v_89 ?v_246) ?v_113)) (or (or ?v_308 ?v_309) ?v_310)) (or (or (not ?v_11) (not ?v_311)) ?v_187)) (or (or ?v_60 ?v_67) ?v_256)) (or (or ?v_312 P6) ?v_313)) (or (or ?v_314 ?v_248) P11)) (or (or ?v_277 ?v_315) P4)) (or (or P7 P6) ?v_141)) (or (or ?v_316 ?v_243) ?v_122)) (or (or ?v_156 ?v_165) ?v_58)) (or (or ?v_88 ?v_231) ?v_241)) (or (or ?v_184 ?v_90) ?v_271)) (or (or ?v_145 ?v_94) ?v_57)) (or (or ?v_261 ?v_287) ?v_125)) (or (or ?v_317 ?v_318) ?v_319)) (or (or ?v_181 (not ?v_105)) P16)) (or (or ?v_263 ?v_320) P26)) (or (or ?v_189 ?v_43) ?v_205)) (or (or ?v_70 P4) ?v_35)) (or (or ?v_200 ?v_187) P17)) (or (or ?v_321 ?v_123) ?v_312)) (or (or P9 ?v_269) ?v_106)) (or (or ?v_322 ?v_2) ?v_323)) (or (or ?v_164 ?v_324) ?v_90)) (or (or ?v_269 ?v_97) ?v_325)) (or (or ?v_220 ?v_326) ?v_153)) (or (or ?v_24 ?v_17) ?v_48)) (or (or ?v_266 ?v_249) ?v_127)) (or (or ?v_251 ?v_86) ?v_158)) (or (or ?v_64 ?v_143) ?v_323)) (or (or ?v_299 (not (< ?v_5 19))) ?v_148)) (or (or ?v_327 ?v_308) P29)) (or (or ?v_89 ?v_192) ?v_255)) (or (or ?v_161 ?v_244) ?v_328)) (or (or ?v_198 ?v_282) ?v_214)) (or (or ?v_230 ?v_59) P3))))))))))))))))))))))))))))))))))))))))))))))))))))))))))))))))))))))))))))
(check-sat)
(exit)
